\* Comfor_Health *\
Minimize
OBJ: 250000 F_5 + 100000 F_6 + 15000 h_1_0 + 15000 h_1_1 + 15000 h_1_2
 + 15000 h_1_3 + 15000 h_2_0 + 15000 h_2_1 + 15000 h_2_2 + 15000 h_2_3
 + 15000 h_3_0 + 15000 h_3_1 + 15000 h_3_2 + 15000 h_3_3 + 15000 h_4_0
 + 15000 h_4_1 + 15000 h_4_2 + 15000 h_4_3 + 15000 h_5_0 + 15000 h_5_1
 + 15000 h_5_2 + 15000 h_5_3 + 15000 h_6_0 + 15000 h_6_1 + 15000 h_6_2
 + 15000 h_6_3 + 2.2925 x_1_1_1 + 3.23875 x_1_1_2 + 4.20865625 x_1_1_3
 - 3.59 x_1_2_1 - 2.64375 x_1_2_2 - 1.67384375 x_1_2_3 + 2.28 x_1_3_1
 + 3.22625 x_1_3_2 + 4.19615625 x_1_3_3 + 3.0125 x_1_4_1 + 3.95875 x_1_4_2
 + 4.92865625 x_1_4_3 - 1.24 x_1_5_1 - 0.29375 x_1_5_2 + 0.67615625 x_1_5_3
 - 4.15 x_1_6_1 - 3.20375 x_1_6_2 - 2.23384375 x_1_6_3 + 0.79 x_1_7_1
 + 1.73625 x_1_7_2 + 2.70615625 x_1_7_3 + 3.32 x_2_1_1 + 4.26625 x_2_1_2
 + 5.23615625 x_2_1_3 - 0.14 x_2_2_1 + 0.80625 x_2_2_2 + 1.77615625 x_2_2_3
 + 3.6275 x_2_3_1 + 4.57375 x_2_3_2 + 5.54365625 x_2_3_3 + 4.3325 x_2_4_1
 + 5.27875 x_2_4_2 + 6.24865625 x_2_4_3 + 2.1125 x_2_5_1 + 3.05875 x_2_5_2
 + 4.02865625 x_2_5_3 + 1.595 x_2_6_1 + 2.54125 x_2_6_2 + 3.51115625 x_2_6_3
 - 4.15 x_2_7_1 - 3.20375 x_2_7_2 - 2.23384375 x_2_7_3 + 0.625 x_3_1_1
 + 1.57125 x_3_1_2 + 2.54115625 x_3_1_3 + 1.4625 x_3_2_1 + 2.40875 x_3_2_2
 + 3.37865625 x_3_2_3 + 2.5825 x_3_3_1 + 3.52875 x_3_3_2 + 4.49865625 x_3_3_3
 + 1.245 x_3_4_1 + 2.19125 x_3_4_2 + 3.16115625 x_3_4_3 + 1.5975 x_3_5_1
 + 2.54375 x_3_5_2 + 3.51365625 x_3_5_3 + 0.98 x_3_6_1 + 1.92625 x_3_6_2
 + 2.89615625 x_3_6_3 - 0.435 x_3_7_1 + 0.51125 x_3_7_2 + 1.48115625 x_3_7_3
 + 3.32 x_4_1_1 + 4.26625 x_4_1_2 + 5.23615625 x_4_1_3 - 0.14 x_4_2_1
 + 0.80625 x_4_2_2 + 1.77615625 x_4_2_3 + 3.6275 x_4_3_1 + 4.57375 x_4_3_2
 + 5.54365625 x_4_3_3 - 4.15 x_4_4_1 - 3.20375 x_4_4_2 - 2.23384375 x_4_4_3
 + 2.1125 x_4_5_1 + 3.05875 x_4_5_2 + 4.02865625 x_4_5_3 + 1.595 x_4_6_1
 + 2.54125 x_4_6_2 + 3.51115625 x_4_6_3 + 2.545 x_4_7_1 + 3.49125 x_4_7_2
 + 4.46115625 x_4_7_3 - 2.5575 x_5_1_1 - 1.61125 x_5_1_2 - 0.64134375 x_5_1_3
 + 1.0825 x_5_2_1 + 2.02875 x_5_2_2 + 2.99865625 x_5_2_3 + 1.65 x_5_3_1
 + 2.59625 x_5_3_2 + 3.56615625 x_5_3_3 + 1.0125 x_5_4_1 + 1.95875 x_5_4_2
 + 2.92865625 x_5_4_3 - 4.15 x_5_5_1 - 3.20375 x_5_5_2 - 2.23384375 x_5_5_3
 - 1.24 x_5_6_1 - 0.29375 x_5_6_2 + 0.67615625 x_5_6_3 + 2.3225 x_5_7_1
 + 3.26875 x_5_7_2 + 4.23865625 x_5_7_3 + 0.5575 x_6_1_1 + 1.50375 x_6_1_2
 + 2.47365625 x_6_1_3 + 3.525 x_6_2_1 + 4.47125 x_6_2_2 + 5.44115625 x_6_2_3
 + 2.26 x_6_3_1 + 3.20625 x_6_3_2 + 4.17615625 x_6_3_3 - 4.15 x_6_4_1
 - 3.20375 x_6_4_2 - 2.23384375 x_6_4_3 + 1.0125 x_6_5_1 + 1.95875 x_6_5_2
 + 2.92865625 x_6_5_3 + 3.0125 x_6_6_1 + 3.95875 x_6_6_2 + 4.92865625 x_6_6_3
 + 0.1025 x_6_7_1 + 1.04875 x_6_7_2 + 2.01865625 x_6_7_3 + 275000 z_1_1
 + 275000 z_1_2 + 275000 z_1_3 + 275000 z_2_1 + 275000 z_2_2 + 275000 z_2_3
 + 275000 z_3_1 + 275000 z_3_2 + 275000 z_3_3 + 285000 z_4_1 + 285000 z_4_2
 + 285000 z_4_3 + 125000 z_5_1 + 125000 z_5_2 + 125000 z_5_3 + 175000 z_6_1
 + 175000 z_6_2 + 175000 z_6_3
Subject To
_C1: x_1_1_1 + x_2_1_1 + x_3_1_1 + x_4_1_1 + x_5_1_1 + x_6_1_1 = 405549.172363
_C10: x_1_3_2 + x_2_3_2 + x_3_3_2 + x_4_3_2 + x_5_3_2 + x_6_3_2
 = 492257.801037
_C100: h_3_1 <= 300
_C101: h_4_1 <= 300
_C102: h_5_1 <= 300
_C103: h_6_1 <= 300
_C104: h_1_2 <= 300
_C105: h_2_2 <= 300
_C106: h_3_2 <= 300
_C107: h_4_2 <= 300
_C108: h_5_2 <= 300
_C109: h_6_2 <= 300
_C11: x_1_4_2 + x_2_4_2 + x_3_4_2 + x_4_4_2 + x_5_4_2 + x_6_4_2
 = 436193.289619
_C110: h_1_3 <= 300
_C111: h_2_3 <= 300
_C112: h_3_3 <= 300
_C113: h_4_3 <= 300
_C114: h_5_3 <= 300
_C115: h_6_3 <= 300
_C116: n_1_0 + n_2_0 + n_3_0 + n_4_0 + n_5_0 + n_6_0 = 560
_C12: x_1_5_2 + x_2_5_2 + x_3_5_2 + x_4_5_2 + x_5_5_2 + x_6_5_2
 = 444665.641605
_C13: x_1_6_2 + x_2_6_2 + x_3_6_2 + x_4_6_2 + x_5_6_2 + x_6_6_2 = 545193.54608
_C14: x_1_7_2 + x_2_7_2 + x_3_7_2 + x_4_7_2 + x_5_7_2 + x_6_7_2
 = 473011.455577
_C15: x_1_1_3 + x_2_1_3 + x_3_1_3 + x_4_1_3 + x_5_1_3 + x_6_1_3
 = 443401.034178
_C16: x_1_2_3 + x_2_2_3 + x_3_2_3 + x_4_2_3 + x_5_2_3 + x_6_2_3 = 314362.0183
_C17: x_1_3_3 + x_2_3_3 + x_3_3_3 + x_4_3_3 + x_5_3_3 + x_6_3_3
 = 517812.602075
_C18: x_1_4_3 + x_2_4_3 + x_3_4_3 + x_4_4_3 + x_5_4_3 + x_6_4_3
 = 457883.579238
_C19: x_1_5_3 + x_2_5_3 + x_3_5_3 + x_4_5_3 + x_5_5_3 + x_6_5_3
 = 464177.283209
_C2: x_1_2_1 + x_2_2_1 + x_3_2_1 + x_4_2_1 + x_5_2_1 + x_6_2_1 = 282352.169717
_C20: x_1_6_3 + x_2_6_3 + x_3_6_3 + x_4_6_3 + x_5_6_3 + x_6_6_3 = 572505.09216
_C21: x_1_7_3 + x_2_7_3 + x_3_7_3 + x_4_7_3 + x_5_7_3 + x_6_7_3
 = 492153.911153
_C22: x_1_1_1 + x_1_2_1 + x_1_3_1 + x_1_4_1 + x_1_5_1 + x_1_6_1 + x_1_7_1
 - 5000000 z_1_1 <= 0
_C23: x_2_1_1 + x_2_2_1 + x_2_3_1 + x_2_4_1 + x_2_5_1 + x_2_6_1 + x_2_7_1
 - 5000000 z_2_1 <= 0
_C24: x_3_1_1 + x_3_2_1 + x_3_3_1 + x_3_4_1 + x_3_5_1 + x_3_6_1 + x_3_7_1
 - 5000000 z_3_1 <= 0
_C25: x_4_1_1 + x_4_2_1 + x_4_3_1 + x_4_4_1 + x_4_5_1 + x_4_6_1 + x_4_7_1
 - 5000000 z_4_1 <= 0
_C26: x_5_1_1 + x_5_2_1 + x_5_3_1 + x_5_4_1 + x_5_5_1 + x_5_6_1 + x_5_7_1
 - 5000000 z_5_1 <= 0
_C27: x_6_1_1 + x_6_2_1 + x_6_3_1 + x_6_4_1 + x_6_5_1 + x_6_6_1 + x_6_7_1
 - 5000000 z_6_1 <= 0
_C28: x_1_1_2 + x_1_2_2 + x_1_3_2 + x_1_4_2 + x_1_5_2 + x_1_6_2 + x_1_7_2
 - 5000000 z_1_2 <= 0
_C29: x_2_1_2 + x_2_2_2 + x_2_3_2 + x_2_4_2 + x_2_5_2 + x_2_6_2 + x_2_7_2
 - 5000000 z_2_2 <= 0
_C3: x_1_3_1 + x_2_3_1 + x_3_3_1 + x_4_3_1 + x_5_3_1 + x_6_3_1 = 468109.933679
_C30: x_3_1_2 + x_3_2_2 + x_3_3_2 + x_3_4_2 + x_3_5_2 + x_3_6_2 + x_3_7_2
 - 5000000 z_3_2 <= 0
_C31: x_4_1_2 + x_4_2_2 + x_4_3_2 + x_4_4_2 + x_4_5_2 + x_4_6_2 + x_4_7_2
 - 5000000 z_4_2 <= 0
_C32: x_5_1_2 + x_5_2_2 + x_5_3_2 + x_5_4_2 + x_5_5_2 + x_5_6_2 + x_5_7_2
 - 5000000 z_5_2 <= 0
_C33: x_6_1_2 + x_6_2_2 + x_6_3_2 + x_6_4_2 + x_6_5_2 + x_6_6_2 + x_6_7_2
 - 5000000 z_6_2 <= 0
_C34: x_1_1_3 + x_1_2_3 + x_1_3_3 + x_1_4_3 + x_1_5_3 + x_1_6_3 + x_1_7_3
 - 5000000 z_1_3 <= 0
_C35: x_2_1_3 + x_2_2_3 + x_2_3_3 + x_2_4_3 + x_2_5_3 + x_2_6_3 + x_2_7_3
 - 5000000 z_2_3 <= 0
_C36: x_3_1_3 + x_3_2_3 + x_3_3_3 + x_3_4_3 + x_3_5_3 + x_3_6_3 + x_3_7_3
 - 5000000 z_3_3 <= 0
_C37: x_4_1_3 + x_4_2_3 + x_4_3_3 + x_4_4_3 + x_4_5_3 + x_4_6_3 + x_4_7_3
 - 5000000 z_4_3 <= 0
_C38: x_5_1_3 + x_5_2_3 + x_5_3_3 + x_5_4_3 + x_5_5_3 + x_5_6_3 + x_5_7_3
 - 5000000 z_5_3 <= 0
_C39: x_6_1_3 + x_6_2_3 + x_6_3_3 + x_6_4_3 + x_6_5_3 + x_6_6_3 + x_6_7_3
 - 5000000 z_6_3 <= 0
_C4: x_1_4_1 + x_2_4_1 + x_3_4_1 + x_4_4_1 + x_5_4_1 + x_6_4_1 = 415488.09654
_C40: F_1 = 1
_C41: F_2 = 1
_C42: F_3 = 1
_C43: F_4 = 1
_C44: - F_1 + z_1_1 >= 0
_C45: - F_2 + z_2_1 >= 0
_C46: - F_3 + z_3_1 >= 0
_C47: - F_4 + z_4_1 >= 0
_C48: - F_5 + z_5_1 >= 0
_C49: - F_6 + z_6_1 >= 0
_C5: x_1_5_1 + x_2_5_1 + x_3_5_1 + x_4_5_1 + x_5_5_1 + x_6_5_1 = 425322.547202
_C50: - F_1 + z_1_2 >= 0
_C51: - F_2 + z_2_2 >= 0
_C52: - F_3 + z_3_2 >= 0
_C53: - F_4 + z_4_2 >= 0
_C54: - F_5 + z_5_2 >= 0
_C55: - F_6 + z_6_2 >= 0
_C56: - F_1 + z_1_3 >= 0
_C57: - F_2 + z_2_3 >= 0
_C58: - F_3 + z_3_3 >= 0
_C59: - F_4 + z_4_3 >= 0
_C6: x_1_6_1 + x_2_6_1 + x_3_6_1 + x_4_6_1 + x_5_6_1 + x_6_6_1 = 519153.848693
_C60: - F_5 + z_5_3 >= 0
_C61: - F_6 + z_6_3 >= 0
_C62: - 15000 n_1_1 + x_1_1_1 + x_1_2_1 + x_1_3_1 + x_1_4_1 + x_1_5_1
 + x_1_6_1 + x_1_7_1 <= 0
_C63: - 15000 n_2_1 + x_2_1_1 + x_2_2_1 + x_2_3_1 + x_2_4_1 + x_2_5_1
 + x_2_6_1 + x_2_7_1 <= 0
_C64: - 15000 n_3_1 + x_3_1_1 + x_3_2_1 + x_3_3_1 + x_3_4_1 + x_3_5_1
 + x_3_6_1 + x_3_7_1 <= 0
_C65: - 15000 n_4_1 + x_4_1_1 + x_4_2_1 + x_4_3_1 + x_4_4_1 + x_4_5_1
 + x_4_6_1 + x_4_7_1 <= 0
_C66: - 15000 n_5_1 + x_5_1_1 + x_5_2_1 + x_5_3_1 + x_5_4_1 + x_5_5_1
 + x_5_6_1 + x_5_7_1 <= 0
_C67: - 15000 n_6_1 + x_6_1_1 + x_6_2_1 + x_6_3_1 + x_6_4_1 + x_6_5_1
 + x_6_6_1 + x_6_7_1 <= 0
_C68: - 15000 n_1_2 + x_1_1_2 + x_1_2_2 + x_1_3_2 + x_1_4_2 + x_1_5_2
 + x_1_6_2 + x_1_7_2 <= 0
_C69: - 15000 n_2_2 + x_2_1_2 + x_2_2_2 + x_2_3_2 + x_2_4_2 + x_2_5_2
 + x_2_6_2 + x_2_7_2 <= 0
_C7: x_1_7_1 + x_2_7_1 + x_3_7_1 + x_4_7_1 + x_5_7_1 + x_6_7_1 = 453575.151859
_C70: - 15000 n_3_2 + x_3_1_2 + x_3_2_2 + x_3_3_2 + x_3_4_2 + x_3_5_2
 + x_3_6_2 + x_3_7_2 <= 0
_C71: - 15000 n_4_2 + x_4_1_2 + x_4_2_2 + x_4_3_2 + x_4_4_2 + x_4_5_2
 + x_4_6_2 + x_4_7_2 <= 0
_C72: - 15000 n_5_2 + x_5_1_2 + x_5_2_2 + x_5_3_2 + x_5_4_2 + x_5_5_2
 + x_5_6_2 + x_5_7_2 <= 0
_C73: - 15000 n_6_2 + x_6_1_2 + x_6_2_2 + x_6_3_2 + x_6_4_2 + x_6_5_2
 + x_6_6_2 + x_6_7_2 <= 0
_C74: - 15000 n_1_3 + x_1_1_3 + x_1_2_3 + x_1_3_3 + x_1_4_3 + x_1_5_3
 + x_1_6_3 + x_1_7_3 <= 0
_C75: - 15000 n_2_3 + x_2_1_3 + x_2_2_3 + x_2_3_3 + x_2_4_3 + x_2_5_3
 + x_2_6_3 + x_2_7_3 <= 0
_C76: - 15000 n_3_3 + x_3_1_3 + x_3_2_3 + x_3_3_3 + x_3_4_3 + x_3_5_3
 + x_3_6_3 + x_3_7_3 <= 0
_C77: - 15000 n_4_3 + x_4_1_3 + x_4_2_3 + x_4_3_3 + x_4_4_3 + x_4_5_3
 + x_4_6_3 + x_4_7_3 <= 0
_C78: - 15000 n_5_3 + x_5_1_3 + x_5_2_3 + x_5_3_3 + x_5_4_3 + x_5_5_3
 + x_5_6_3 + x_5_7_3 <= 0
_C79: - 15000 n_6_3 + x_6_1_3 + x_6_2_3 + x_6_3_3 + x_6_4_3 + x_6_5_3
 + x_6_6_3 + x_6_7_3 <= 0
_C8: x_1_1_2 + x_2_1_2 + x_3_1_2 + x_4_1_2 + x_5_1_2 + x_6_1_2 = 424348.517089
_C80: - h_1_1 - n_1_0 + n_1_1 = 0
_C81: - h_2_1 - n_2_0 + n_2_1 = 0
_C82: - h_3_1 - n_3_0 + n_3_1 = 0
_C83: - h_4_1 - n_4_0 + n_4_1 = 0
_C84: - h_5_1 - n_5_0 + n_5_1 = 0
_C85: - h_6_1 - n_6_0 + n_6_1 = 0
_C86: - h_1_2 - n_1_1 + n_1_2 = 0
_C87: - h_2_2 - n_2_1 + n_2_2 = 0
_C88: - h_3_2 - n_3_1 + n_3_2 = 0
_C89: - h_4_2 - n_4_1 + n_4_2 = 0
_C9: x_1_2_2 + x_2_2_2 + x_3_2_2 + x_4_2_2 + x_5_2_2 + x_6_2_2 = 297783.50915
_C90: - h_5_2 - n_5_1 + n_5_2 = 0
_C91: - h_6_2 - n_6_1 + n_6_2 = 0
_C92: - h_1_3 - n_1_2 + n_1_3 = 0
_C93: - h_2_3 - n_2_2 + n_2_3 = 0
_C94: - h_3_3 - n_3_2 + n_3_3 = 0
_C95: - h_4_3 - n_4_2 + n_4_3 = 0
_C96: - h_5_3 - n_5_2 + n_5_3 = 0
_C97: - h_6_3 - n_6_2 + n_6_3 = 0
_C98: h_1_1 <= 300
_C99: h_2_1 <= 300
Bounds
 0 <= h_1_0
 0 <= h_1_1
 0 <= h_1_2
 0 <= h_1_3
 0 <= h_2_0
 0 <= h_2_1
 0 <= h_2_2
 0 <= h_2_3
 0 <= h_3_0
 0 <= h_3_1
 0 <= h_3_2
 0 <= h_3_3
 0 <= h_4_0
 0 <= h_4_1
 0 <= h_4_2
 0 <= h_4_3
 0 <= h_5_0
 0 <= h_5_1
 0 <= h_5_2
 0 <= h_5_3
 0 <= h_6_0
 0 <= h_6_1
 0 <= h_6_2
 0 <= h_6_3
 0 <= n_1_0
 0 <= n_1_1
 0 <= n_1_2
 0 <= n_1_3
 0 <= n_2_0
 0 <= n_2_1
 0 <= n_2_2
 0 <= n_2_3
 0 <= n_3_0
 0 <= n_3_1
 0 <= n_3_2
 0 <= n_3_3
 0 <= n_4_0
 0 <= n_4_1
 0 <= n_4_2
 0 <= n_4_3
 0 <= n_5_0
 0 <= n_5_1
 0 <= n_5_2
 0 <= n_5_3
 0 <= n_6_0
 0 <= n_6_1
 0 <= n_6_2
 0 <= n_6_3
Generals
h_1_0
h_1_1
h_1_2
h_1_3
h_2_0
h_2_1
h_2_2
h_2_3
h_3_0
h_3_1
h_3_2
h_3_3
h_4_0
h_4_1
h_4_2
h_4_3
h_5_0
h_5_1
h_5_2
h_5_3
h_6_0
h_6_1
h_6_2
h_6_3
n_1_0
n_1_1
n_1_2
n_1_3
n_2_0
n_2_1
n_2_2
n_2_3
n_3_0
n_3_1
n_3_2
n_3_3
n_4_0
n_4_1
n_4_2
n_4_3
n_5_0
n_5_1
n_5_2
n_5_3
n_6_0
n_6_1
n_6_2
n_6_3
Binaries
F_1
F_2
F_3
F_4
F_5
F_6
z_1_1
z_1_2
z_1_3
z_2_1
z_2_2
z_2_3
z_3_1
z_3_2
z_3_3
z_4_1
z_4_2
z_4_3
z_5_1
z_5_2
z_5_3
z_6_1
z_6_2
z_6_3
End
